c ind 100 102 104 106 108 112 114 117 120 123 0
c ind 140 142 144 146 148 150 152 154 156 158 0
c ind 160 162 164 166 168 170 21 22 24 26 0
c ind 28 3 30 32 34 36 38 4 40 42 0
c ind 44 46 48 50 52 55 59 61 78 80 0
c ind 82 84 86 88 90 92 94 96 98 0
p cnf 170 407
-1 -2 5 0
-1 2 53 0
-10 11 0
-10 41 0
-101 -102 46 0
-101 -46 102 0
-103 -104 48 0
-103 -48 104 0
-105 -106 50 0
-105 -50 106 0
-107 -108 52 0
-107 -52 108 0
-109 -110 62 0
-109 110 115 0
-11 12 0
-11 39 0
-110 111 0
-110 113 0
-111 -112 4 0
-111 -4 112 0
-113 -114 22 0
-113 -22 114 0
-115 -116 62 0
-115 116 118 0
-116 -117 4 0
-116 -4 117 0
-118 -119 62 0
-118 119 121 0
-119 -120 4 0
-119 -4 120 0
-12 13 0
-12 37 0
-121 -122 124 0
-121 122 62 0
-122 -123 4 0
-122 -4 123 0
-124 125 0
-124 169 0
-125 126 0
-125 167 0
-126 127 0
-126 165 0
-127 128 0
-127 163 0
-128 129 0
-128 161 0
-129 130 0
-129 159 0
-13 14 0
-13 35 0
-130 131 0
-130 157 0
-131 132 0
-131 155 0
-132 133 0
-132 153 0
-133 134 0
-133 151 0
-134 135 0
-134 149 0
-135 136 0
-135 147 0
-136 137 0
-136 145 0
-137 138 0
-137 143 0
-138 139 0
-138 141 0
-139 -140 21 0
-139 -21 140 0
-14 15 0
-14 33 0
-141 -142 24 0
-141 -24 142 0
-143 -144 26 0
-143 -26 144 0
-145 -146 28 0
-145 -28 146 0
-147 -148 30 0
-147 -30 148 0
-149 -150 32 0
-149 -32 150 0
-15 16 0
-15 31 0
-151 -152 34 0
-151 -34 152 0
-153 -154 36 0
-153 -36 154 0
-155 -156 38 0
-155 -38 156 0
-157 -158 40 0
-157 -40 158 0
-159 -160 42 0
-159 -42 160 0
-16 17 0
-16 29 0
-161 -162 44 0
-161 -44 162 0
-163 -164 46 0
-163 -46 164 0
-165 -166 48 0
-165 -48 166 0
-167 -168 50 0
-167 -50 168 0
-169 -170 52 0
-169 -52 170 0
-17 18 0
-17 27 0
-18 19 0
-18 25 0
-19 20 0
-19 23 0
-2 -3 4 0
-2 -4 3 0
-20 -21 22 0
-20 -22 21 0
-22 0
-23 -22 24 0
-23 -24 22 0
-25 -22 26 0
-25 -26 22 0
-27 -22 28 0
-27 -28 22 0
-29 -30 4 0
-29 -4 30 0
-31 -22 32 0
-31 -32 22 0
-33 -22 34 0
-33 -34 22 0
-35 -22 36 0
-35 -36 22 0
-37 -22 38 0
-37 -38 22 0
-39 -22 40 0
-39 -40 22 0
-41 -22 42 0
-41 -42 22 0
-43 -22 44 0
-43 -44 22 0
-45 -22 46 0
-45 -46 22 0
-47 -22 48 0
-47 -48 22 0
-49 -22 50 0
-49 -50 22 0
-5 51 0
-5 6 0
-51 -22 52 0
-51 -52 22 0
-53 -54 56 0
-53 54 62 0
-54 -4 55 0
-54 -55 4 0
-56 -57 62 0
-56 57 109 0
-57 58 0
-57 60 0
-58 -4 59 0
-58 -59 4 0
-6 49 0
-6 7 0
-60 -22 61 0
-60 -61 22 0
-62 107 0
-62 63 0
-63 105 0
-63 64 0
-64 103 0
-64 65 0
-65 101 0
-65 66 0
-66 67 0
-66 99 0
-67 68 0
-67 97 0
-68 69 0
-68 95 0
-69 70 0
-69 93 0
-7 47 0
-7 8 0
-70 71 0
-70 91 0
-71 72 0
-71 89 0
-72 73 0
-72 87 0
-73 74 0
-73 85 0
-74 75 0
-74 83 0
-75 76 0
-75 81 0
-76 77 0
-76 79 0
-77 -21 78 0
-77 -78 21 0
-79 -24 80 0
-79 -80 24 0
-8 45 0
-8 9 0
-81 -26 82 0
-81 -82 26 0
-83 -28 84 0
-83 -84 28 0
-85 -30 86 0
-85 -86 30 0
-87 -32 88 0
-87 -88 32 0
-89 -34 90 0
-89 -90 34 0
-9 10 0
-9 43 0
-91 -36 92 0
-91 -92 36 0
-93 -38 94 0
-93 -94 38 0
-95 -40 96 0
-95 -96 40 0
-97 -42 98 0
-97 -98 42 0
-99 -100 44 0
-99 -44 100 0
1 -2 -5 0
1 -5 -53 0
1 0
1 2 -53 0
10 -11 -41 0
101 -46 -102 0
101 46 102 0
103 -48 -104 0
103 48 104 0
105 -50 -106 0
105 50 106 0
107 -52 -108 0
107 52 108 0
109 -110 -62 0
109 -62 -115 0
109 110 -115 0
11 -12 -39 0
110 -111 -113 0
111 -112 -4 0
111 112 4 0
113 -114 -22 0
113 114 22 0
115 -116 -62 0
115 -62 -118 0
115 116 -118 0
116 -117 -4 0
116 117 4 0
118 -119 -62 0
118 -62 -121 0
118 119 -121 0
119 -120 -4 0
119 120 4 0
12 -13 -37 0
121 -122 -124 0
121 -124 -62 0
121 122 -62 0
122 -123 -4 0
122 123 4 0
124 -125 -169 0
125 -126 -167 0
126 -127 -165 0
127 -128 -163 0
128 -129 -161 0
129 -130 -159 0
13 -14 -35 0
130 -131 -157 0
131 -132 -155 0
132 -133 -153 0
133 -134 -151 0
134 -135 -149 0
135 -136 -147 0
136 -137 -145 0
137 -138 -143 0
138 -139 -141 0
139 -21 -140 0
139 21 140 0
14 -15 -33 0
141 -24 -142 0
141 24 142 0
143 -26 -144 0
143 26 144 0
145 -28 -146 0
145 28 146 0
147 -30 -148 0
147 30 148 0
149 -32 -150 0
149 32 150 0
15 -16 -31 0
151 -34 -152 0
151 34 152 0
153 -36 -154 0
153 36 154 0
155 -38 -156 0
155 38 156 0
157 -40 -158 0
157 40 158 0
159 -42 -160 0
159 42 160 0
16 -17 -29 0
161 -44 -162 0
161 44 162 0
163 -46 -164 0
163 46 164 0
165 -48 -166 0
165 48 166 0
167 -50 -168 0
167 50 168 0
169 -52 -170 0
169 52 170 0
17 -18 -27 0
18 -19 -25 0
19 -20 -23 0
2 -3 -4 0
2 3 4 0
20 -21 -22 0
20 21 22 0
23 -24 -22 0
23 24 22 0
25 -26 -22 0
25 26 22 0
27 -28 -22 0
27 28 22 0
29 -30 -4 0
29 30 4 0
31 -32 -22 0
31 32 22 0
33 -34 -22 0
33 34 22 0
35 -36 -22 0
35 36 22 0
37 -38 -22 0
37 38 22 0
39 -40 -22 0
39 40 22 0
4 0
41 -42 -22 0
41 42 22 0
43 -44 -22 0
43 44 22 0
45 -46 -22 0
45 46 22 0
47 -48 -22 0
47 48 22 0
49 -50 -22 0
49 50 22 0
5 -6 -51 0
51 -52 -22 0
51 52 22 0
53 -54 -56 0
53 -56 -62 0
53 54 -62 0
54 -55 -4 0
54 55 4 0
56 -57 -62 0
56 -62 -109 0
56 57 -109 0
57 -58 -60 0
58 -59 -4 0
58 59 4 0
6 -7 -49 0
60 -61 -22 0
60 61 22 0
62 -63 -107 0
63 -64 -105 0
64 -65 -103 0
65 -66 -101 0
66 -67 -99 0
67 -68 -97 0
68 -69 -95 0
69 -70 -93 0
7 -8 -47 0
70 -71 -91 0
71 -72 -89 0
72 -73 -87 0
73 -74 -85 0
74 -75 -83 0
75 -76 -81 0
76 -77 -79 0
77 -21 -78 0
77 21 78 0
79 -24 -80 0
79 24 80 0
8 -9 -45 0
81 -26 -82 0
81 26 82 0
83 -28 -84 0
83 28 84 0
85 -30 -86 0
85 30 86 0
87 -32 -88 0
87 32 88 0
89 -34 -90 0
89 34 90 0
9 -10 -43 0
91 -36 -92 0
91 36 92 0
93 -38 -94 0
93 38 94 0
95 -40 -96 0
95 40 96 0
97 -42 -98 0
97 42 98 0
99 -44 -100 0
99 44 100 0
